
******************************************************************************
This program contains Ipopt, a library for large-scale nonlinear optimization.
 Ipopt is released as open source code under the Eclipse Public License (EPL).
         For more information visit http://projects.coin-or.org/Ipopt
******************************************************************************

This is Ipopt version 3.12.6, running with linear solver ma57.

Number of nonzeros in equality constraint Jacobian...:      101
Number of nonzeros in inequality constraint Jacobian.:      262
Number of nonzeros in Lagrangian Hessian.............:      199

Reallocating memory for MA57: lfact (6455)
Total number of variables............................:       33
                     variables with only lower bounds:       12
                variables with lower and upper bounds:        0
                     variables with only upper bounds:        0
Total number of equality constraints.................:       18
Total number of inequality constraints...............:       48
        inequality constraints with only lower bounds:        0
   inequality constraints with lower and upper bounds:        0
        inequality constraints with only upper bounds:       48

iter    objective    inf_pr   inf_du lg(mu)  ||d||  lg(rg) alpha_du alpha_pr  ls
   0  7.8010000e+01 5.29e+02 1.12e+00  -1.0 0.00e+00    -  0.00e+00 0.00e+00   0
   1  7.7243219e+01 5.19e+02 5.72e+01  -1.0 6.00e+00   2.0 1.00e+00 1.97e-02h  1
   2  7.7226194e+01 5.18e+02 2.39e+03  -1.0 1.21e+01   1.5 1.77e-02 4.44e-04h  1
   3  7.7048539e+01 5.16e+02 3.71e+03  -1.0 1.99e+01   1.9 7.00e-03 4.66e-03h  1
   4  7.7034407e+01 5.16e+02 4.54e+04  -1.0 1.27e+01   3.3 7.43e-03 3.72e-04h  1
   5  7.6845953e+01 5.13e+02 3.90e+04  -1.0 1.40e+01   2.8 2.24e-03 4.96e-03h  1
Reallocating memory for MA57: lfact (6953)
   6  7.6762923e+01 5.12e+02 4.98e+04  -1.0 1.50e+01   3.2 4.95e-03 2.19e-03h  1
   7  7.6637719e+01 5.10e+02 7.49e+04  -1.0 1.13e+01   3.7 5.96e-03 3.31e-03h  1
   8  7.6461687e+01 5.08e+02 8.66e+04  -1.0 1.07e+01   3.2 1.24e-02 4.66e-03h  1
   9  7.6221421e+01 5.05e+02 1.63e+05  -1.0 9.87e+00   3.6 2.08e-02 6.38e-03h  1
Reallocating memory for MA57: lfact (7479)
iter    objective    inf_pr   inf_du lg(mu)  ||d||  lg(rg) alpha_du alpha_pr  ls
  10  7.5971168e+01 5.01e+02 1.61e+05  -1.0 9.03e+00   3.1 2.61e-03 6.66e-03h  1
  11  7.5689962e+01 4.98e+02 1.50e+05  -1.0 8.02e+00   3.6 3.51e-03 7.52e-03h  1
  12  7.5578821e+01 4.96e+02 3.45e+05  -1.0 7.32e+00   4.0 2.96e-02 2.98e-03h  1
Reallocating memory for MA57: lfact (8033)
  13  7.5334180e+01 4.93e+02 3.66e+05  -1.0 7.15e+00   3.5 2.98e-02 6.57e-03h  1
  14  7.2630118e+01 4.58e+02 1.46e+05  -1.0 6.69e+00   3.9 3.08e-02 7.29e-02h  1
  15  7.1391375e+01 4.42e+02 1.03e+04  -1.0 5.58e+00   4.4 1.67e-04 3.47e-02f  1
  16  6.9575311e+01 4.19e+02 2.52e+05  -1.0 5.48e+00   4.8 2.90e-02 5.17e-02h  1
  17  6.8654010e+01 4.08e+02 6.23e+05  -1.0 5.34e+00   5.2 1.06e-02 2.69e-02h  1
  18  6.7448722e+01 3.94e+02 2.17e+05  -1.0 5.27e+00   4.7 1.48e-01 3.58e-02h  1
  19  5.6006577e+01 2.69e+02 3.88e+06  -1.0 5.18e+00   5.2 3.58e-03 3.46e-01f  1
iter    objective    inf_pr   inf_du lg(mu)  ||d||  lg(rg) alpha_du alpha_pr  ls
  20  4.9296030e+01 2.07e+02 3.57e+06  -1.0 4.28e+00   5.6 2.75e-02 2.45e-01h  1
  21  4.9156993e+01 2.06e+02 3.58e+06  -1.0 3.76e+00   5.1 1.31e-02 5.79e-03h  1
  22  4.9154441e+01 2.06e+02 3.64e+06  -1.0 3.75e+00   5.5 3.09e-02 1.06e-04h  1
  23  4.5792110e+01 1.78e+02 2.65e+06  -1.0 3.75e+00   5.0 1.81e-03 1.40e-01f  1
  24  4.5761363e+01 1.78e+02 4.39e+06  -1.0 3.48e+00   5.5 5.60e-01 1.38e-03h  1
  25  3.7730460e+01 1.20e+02 2.40e+06  -1.0 3.48e+00   5.0 9.26e-03 3.61e-01h  1
  26  3.7650925e+01 1.19e+02 2.38e+06  -1.0 2.85e+00   5.4 9.94e-05 4.36e-03h  1
  27  3.7650075e+01 1.19e+02 2.38e+06  -1.0 2.85e+00   4.9 4.90e-04 4.77e-05h  1
  28r 3.7650075e+01 1.19e+02 1.00e+03   2.1 0.00e+00   5.4 0.00e+00 3.82e-07R  2
  29r 3.7235858e+01 1.13e+02 1.00e+03   2.1 1.04e+05    -  1.85e-04 5.74e-05f  1
iter    objective    inf_pr   inf_du lg(mu)  ||d||  lg(rg) alpha_du alpha_pr  ls
  30r 2.5942111e+01 2.98e+01 1.00e+03   0.7 7.45e+04    -  1.94e-04 1.50e-03f  1
  31  2.5917928e+01 2.97e+01 9.16e+00  -1.0 1.11e+01    -  1.44e-02 1.91e-03f  1
  32  2.5708248e+01 2.93e+01 4.93e+00  -1.0 9.12e+00    -  3.25e-02 1.50e-02f  1
  33  2.5067065e+01 2.77e+01 1.05e+01  -1.0 9.77e+00    -  2.07e-02 4.96e-02h  1
  34  2.4876117e+01 2.74e+01 1.97e+01  -1.0 1.55e+01    -  4.56e-02 1.24e-02h  1
  35  2.4121712e+01 2.59e+01 1.87e+01  -1.0 9.75e+00    -  2.09e-02 5.40e-02f  1
  36  2.3247805e+01 2.41e+01 1.01e+01  -1.0 6.39e+00    -  1.72e-02 7.13e-02h  1
  37  2.3211354e+01 2.40e+01 6.30e+02  -1.0 2.50e+00   4.9 3.40e-03 3.21e-03h  1
  38  2.3210896e+01 2.40e+01 1.73e+03  -1.0 2.44e+00   4.4 1.24e-02 4.07e-05h  1
  39  2.3186526e+01 2.40e+01 1.14e+04  -1.0 2.27e+00   3.9 3.95e-02 2.23e-03h  1
iter    objective    inf_pr   inf_du lg(mu)  ||d||  lg(rg) alpha_du alpha_pr  ls
  40  2.3105572e+01 2.38e+01 1.19e+04  -1.0 2.33e+00   3.5 1.53e-02 7.46e-03h  1
  41  2.2715846e+01 2.29e+01 1.20e+04  -1.0 2.43e+00   3.0 8.65e-02 3.65e-02h  1
  42  2.2571606e+01 2.26e+01 1.20e+04  -1.0 4.10e+00   2.5 7.35e-03 1.46e-02h  1
  43  2.2536622e+01 2.25e+01 1.21e+04  -1.0 2.61e+00   2.9 4.86e-02 3.45e-03h  1
  44  2.1035195e+01 1.91e+01 1.30e+04  -1.0 4.99e+00   2.5 2.05e-02 1.58e-01f  1
  45  1.9082384e+01 1.52e+01 1.01e+04  -1.0 1.48e+00   2.9 2.31e-01 2.15e-01h  1
  46  1.9062971e+01 1.52e+01 1.00e+04  -1.0 1.14e+00   3.3 6.87e-03 2.42e-03h  1
  47  1.9062658e+01 1.52e+01 3.36e+04  -1.0 4.17e+00   2.8 1.11e-01 4.59e-05h  1
  48  1.8884458e+01 1.47e+01 1.98e+04  -1.0 1.05e+01   3.3 6.12e-04 2.79e-02h  1
  49  1.8851891e+01 1.47e+01 4.32e+04  -1.0 9.74e+01   2.8 7.26e-03 9.30e-04h  1
iter    objective    inf_pr   inf_du lg(mu)  ||d||  lg(rg) alpha_du alpha_pr  ls
  50  1.8849274e+01 1.47e+01 4.30e+04  -1.0 1.26e+01   3.2 1.07e-01 3.62e-04h  1
  51  1.8792326e+01 1.47e+01 4.74e+04  -1.0 2.63e+01   2.7 8.38e-03 3.86e-03h  1
  52  1.8763154e+01 1.46e+01 4.02e+04  -1.0 1.40e+01   3.2 5.23e-02 4.36e-03f  1
  53  1.8544041e+01 1.44e+01 3.75e+04  -1.0 2.22e+01   2.7 1.29e-02 1.66e-02f  1
  54  1.8535218e+01 1.43e+01 3.60e+04  -1.0 9.36e+00   3.1 2.19e-02 1.25e-03h  1
  55  1.8532645e+01 1.43e+01 3.75e+04  -1.0 3.05e+01   2.6 4.97e-03 1.50e-04h  1
  56  1.6151371e+01 9.97e+00 3.58e+04  -1.0 9.60e+00   3.1 1.63e-04 3.32e-01f  1
  57  1.6098916e+01 9.88e+00 3.55e+04  -1.0 1.50e+00   3.5 2.48e-02 8.45e-03h  1
  58  1.6087663e+01 9.86e+00 3.54e+04  -1.0 2.39e+00   3.0 6.10e-03 1.91e-03h  1
  59  1.5605771e+01 9.11e+00 3.27e+04  -1.0 1.60e+00   3.4 1.15e-01 7.73e-02f  1
iter    objective    inf_pr   inf_du lg(mu)  ||d||  lg(rg) alpha_du alpha_pr  ls
  60  1.5522797e+01 8.98e+00 3.22e+04  -1.0 1.48e+00   3.0 6.91e-04 1.44e-02f  1
  61  1.5521942e+01 8.98e+00 3.22e+04  -1.0 1.35e+00   3.4 3.00e-03 1.45e-04h  1
  62  1.5521818e+01 8.98e+00 3.22e+04  -1.0 6.79e+01   2.9 4.66e-05 1.72e-05h  1
  63r 1.5521818e+01 8.98e+00 1.00e+03   1.0 0.00e+00   3.3 0.00e+00 3.01e-07R  4
  64r 1.3567748e+01 5.02e+00 9.99e+02   1.0 8.42e+03    -  8.60e-04 5.66e-04f  1
  65  1.3550352e+01 5.00e+00 7.12e+01  -1.0 7.57e+00    -  1.78e-01 3.05e-03f  1
  66  1.3551877e+01 4.98e+00 7.21e+01  -1.0 2.24e+01    -  4.27e-03 4.02e-03f  1
  67  1.3409136e+01 4.77e+00 9.29e+01  -1.0 2.19e+01    -  5.80e-02 4.24e-02f  1
  68  1.3409015e+01 4.76e+00 1.20e+02  -1.0 1.92e+01    -  3.09e-02 1.52e-03h  1
  69  1.3378196e+01 4.56e+00 1.03e+02  -1.0 1.89e+01    -  1.03e-02 4.27e-02f  1
iter    objective    inf_pr   inf_du lg(mu)  ||d||  lg(rg) alpha_du alpha_pr  ls
  70  1.3376253e+01 4.56e+00 4.57e+02  -1.0 1.39e+01    -  2.52e-02 6.05e-04h  1
  71  1.3352181e+01 4.54e+00 9.87e+01  -1.0 6.00e+01    -  4.26e-05 3.72e-03h  1
  72  1.3351960e+01 4.54e+00 8.78e+03  -1.0 3.39e+01   2.9 1.03e-03 3.65e-05h  1
  73  1.3345513e+01 4.54e+00 1.53e+04  -1.0 5.82e+01   2.4 1.76e-03 7.66e-04h  1
  74  1.3319304e+01 4.53e+00 1.05e+04  -1.0 5.36e+01   1.9 1.21e-04 2.65e-03h  1
  75  1.3316383e+01 4.52e+00 4.03e+04  -1.0 4.22e+01   2.3 7.28e-03 2.74e-04h  1
  76  1.3314797e+01 4.52e+00 4.05e+04  -1.0 7.64e+02   1.8 1.40e-05 4.99e-05h  1
  77  1.3313851e+01 4.52e+00 8.08e+04  -1.0 4.35e+01   2.3 1.28e-02 8.10e-05h  1
  78  1.3272583e+01 4.52e+00 8.32e+04  -1.0 4.01e+02   1.8 7.40e-05 6.86e-04h  1
  79  1.3267801e+01 4.52e+00 8.30e+04  -1.0 7.03e+01   1.3 1.43e-03 2.50e-04h  1
iter    objective    inf_pr   inf_du lg(mu)  ||d||  lg(rg) alpha_du alpha_pr  ls
  80  1.3211162e+01 4.50e+00 8.99e+04  -1.0 4.22e+01   1.7 1.90e-02 4.19e-03h  1
  81  1.3170005e+01 4.48e+00 1.36e+05  -1.0 3.56e+01   2.2 3.70e-02 3.60e-03h  1
  82  1.3088749e+01 4.45e+00 1.33e+05  -1.0 4.64e+01   1.7 4.41e-03 7.59e-03h  1
  83  1.3086485e+01 4.45e+00 1.32e+05  -1.0 6.09e+01   1.2 2.76e-03 1.75e-04h  1
  84  1.2950487e+01 4.39e+00 1.41e+05  -1.0 4.39e+01   1.6 3.51e-02 1.28e-02h  1
  85  1.2948963e+01 4.39e+00 1.71e+05  -1.0 3.30e+01   2.1 2.08e-02 1.98e-04h  1
  86  1.2703148e+01 4.23e+00 1.60e+05  -1.0 3.11e+01   1.6 8.27e-04 3.46e-02f  1
  87  1.2676534e+01 4.20e+00 2.34e+05  -1.0 2.60e+01   2.0 1.01e-01 5.61e-03h  1
  88  1.2673548e+01 4.19e+00 2.21e+05  -1.0 4.64e+01   1.5 7.50e-02 2.23e-03h  1
  89  1.2674832e+01 4.19e+00 2.24e+05  -1.0 5.16e+01   2.0 4.56e-03 8.42e-04h  1
iter    objective    inf_pr   inf_du lg(mu)  ||d||  lg(rg) alpha_du alpha_pr  ls
  90  1.2713561e+01 4.18e+00 2.24e+05  -1.0 4.15e+02   1.5 2.82e-05 6.33e-04h  1
  91  1.2424974e+01 4.14e+00 2.20e+05  -1.0 3.03e+02   1.0 1.76e-05 6.99e-03f  1
  92  1.2419995e+01 4.14e+00 1.90e+05  -1.0 9.70e+02    -  1.48e-02 2.47e-05h  1
  93  1.2403424e+01 4.11e+00 1.78e+05  -1.0 3.68e+01    -  4.00e-02 7.16e-03h  1
  94  1.2399110e+01 4.11e+00 1.13e+06  -1.0 5.17e+02    -  5.43e-03 7.39e-05h  1
  95  1.2405906e+01 4.11e+00 5.18e+05  -1.0 6.35e+03    -  1.41e-06 6.90e-06h  1
  96  1.2406169e+01 4.11e+00 4.90e+05  -1.0 5.68e+02    -  1.40e-07 2.91e-06f  2
  97  1.2406171e+01 4.11e+00 4.96e+05  -1.0 4.03e+02    -  2.98e-06 3.62e-07h  4
  98  1.2406189e+01 4.11e+00 5.58e+05  -1.0 3.95e+02    -  6.16e-06 3.26e-07h  4
  99  1.2406899e+01 4.11e+00 4.44e+05  -1.0 1.24e+03    -  2.73e-08 3.79e-06f  1
iter    objective    inf_pr   inf_du lg(mu)  ||d||  lg(rg) alpha_du alpha_pr  ls
 100  1.2403645e+01 4.11e+00 2.14e+06  -1.0 3.88e+02    -  1.29e-06 2.69e-04f  1
 101  1.2441220e+01 4.10e+00 2.67e+06  -1.0 2.38e+02    -  2.49e-03 1.64e-03h  1
 102  1.2444843e+01 4.10e+00 2.17e+06  -1.0 1.05e+02    -  1.18e-02 5.03e-04h  1
 103  1.2595315e+01 4.00e+00 2.39e+06  -1.0 1.03e+02    -  1.32e-02 2.06e-02f  1
 104  1.2734595e+01 3.91e+00 2.44e+06  -1.0 7.35e+01    -  7.66e-02 2.38e-02h  1
 105  1.2736067e+01 3.91e+00 2.43e+06  -1.0 7.10e+01    -  8.77e-02 2.45e-04h  1
 106  1.2737470e+01 3.91e+00 2.43e+06  -1.0 2.14e+03    -  1.05e-07 4.41e-06f  2
 107  1.2710155e+01 3.87e+00 2.41e+06  -1.0 1.31e+02    -  3.11e-06 8.86e-03f  1
 108  1.2670367e+01 3.83e+00 2.38e+06  -1.0 1.09e+02    -  2.40e-02 1.03e-02h  1
 109  1.2671878e+01 3.83e+00 2.37e+06  -1.0 1.00e+02    -  2.27e-03 1.32e-04h  1
iter    objective    inf_pr   inf_du lg(mu)  ||d||  lg(rg) alpha_du alpha_pr  ls
 110  1.2706009e+01 3.83e+00 2.38e+06  -1.0 1.22e+03    -  1.78e-06 1.93e-04h  1
 111  1.2434154e+01 3.73e+00 2.34e+06  -1.0 1.55e+02    -  2.18e-05 2.19e-02f  1
 112  1.2354912e+01 3.65e+00 2.24e+06  -1.0 1.24e+02    -  7.41e-02 1.98e-02f  1
 113  1.2354248e+01 3.65e+00 2.17e+06  -1.0 1.07e+02    -  7.03e-02 2.53e-04h  1
 114  1.2355684e+01 3.65e+00 2.15e+06  -1.0 1.07e+02    -  9.79e-03 1.27e-04h  1
 115  1.2485633e+01 3.61e+00 2.14e+06  -1.0 1.13e+02    -  9.94e-05 1.08e-02f  1
 116  1.4316732e+01 3.13e+00 2.06e+06  -1.0 1.47e+02    -  7.60e-04 1.03e-01f  2
 117  1.6796836e+01 2.82e+00 1.91e+06  -1.0 1.91e+02    -  7.31e-02 9.17e-02h  1
 118  2.0577453e+01 3.66e+00 1.91e+06  -1.0 2.32e+02    -  6.47e-03 1.14e-01h  3
 119  3.1788467e+01 1.28e+00 1.83e+06  -1.0 1.65e+02    -  1.25e-03 7.05e-01H  1
iter    objective    inf_pr   inf_du lg(mu)  ||d||  lg(rg) alpha_du alpha_pr  ls
 120  3.1703964e+01 1.19e+00 1.54e+06  -1.0 1.34e+01   1.4 1.63e-01 6.75e-02h  1
 121  3.1114499e+01 9.26e-01 1.50e+06  -1.0 1.30e+01   1.0 7.96e-03 5.80e-01f  1
 122  3.1063967e+01 7.39e-01 4.20e+05  -1.0 5.62e+00   0.5 7.26e-01 2.85e-01h  1
 123  3.0969701e+01 4.64e-01 4.01e+05  -1.0 3.65e+00   0.9 3.34e-02 3.75e-01f  1
 124  3.0800796e+01 2.18e-02 1.15e+05  -1.0 2.30e+00   0.4 7.05e-01 1.00e+00h  1
 125  2.9555520e+01 9.78e-02 9.50e+04  -1.0 5.22e+00    -  1.65e-01 1.00e+00f  1
 126  2.5659950e+01 7.01e+00 2.02e+04  -1.0 1.07e+02    -  7.85e-01 3.03e-01f  1
 127  2.3475006e+01 4.39e+00 1.44e+04  -1.0 3.60e+01    -  2.87e-01 4.53e-01f  1
 128  1.8476381e+01 1.35e+01 5.41e+03  -1.0 3.69e+01    -  6.32e-01 1.00e+00f  1
 129  1.6195311e+01 1.64e+01 4.40e+03  -1.0 1.90e+01    -  1.75e-01 1.00e+00h  1
iter    objective    inf_pr   inf_du lg(mu)  ||d||  lg(rg) alpha_du alpha_pr  ls
 130  1.4186753e+01 4.73e+01 3.81e+03  -1.0 3.45e+01    -  1.41e-01 1.00e+00h  1
 131  1.5257511e+01 3.29e+01 2.98e+03  -1.0 6.00e+01    -  2.17e-01 3.62e-01h  1
 132  1.5829978e+01 5.64e+00 1.77e+03  -1.0 1.92e+01    -  4.06e-01 1.00e+00h  1
 133  1.5834580e+01 6.12e-01 8.87e+01  -1.0 1.51e+01    -  9.50e-01 1.00e+00h  1
 134  1.5348137e+01 4.84e+00 6.03e+01  -1.0 1.83e+01    -  3.17e-01 8.82e-01f  1
 135  1.5029188e+01 3.01e+00 4.24e+01  -1.0 1.33e+01    -  3.02e-01 1.00e+00h  1
 136  1.4225713e+01 1.65e+00 8.36e+00  -1.0 1.63e+01    -  8.00e-01 1.00e+00h  1
 137  1.5519398e+01 2.38e+00 2.89e+00  -1.0 3.66e+01    -  6.55e-01 1.00e+00h  1
 138  1.6172527e+01 1.99e-01 4.62e-02  -1.0 1.34e+01    -  1.00e+00 1.00e+00h  1
 139  1.6956468e+01 7.95e-01 1.07e-01  -1.0 1.59e+01    -  1.00e+00 1.00e+00h  1
iter    objective    inf_pr   inf_du lg(mu)  ||d||  lg(rg) alpha_du alpha_pr  ls
 140  1.6894375e+01 5.99e-02 1.57e-02  -1.0 2.06e+00    -  1.00e+00 1.00e+00h  1
 141  1.4212459e+01 1.79e-01 3.29e-01  -2.5 1.64e+02    -  1.00e+00 3.27e-01f  1
 142  1.2766601e+01 1.43e-01 6.08e-01  -2.5 3.64e+01    -  1.00e+00 5.73e-01h  1
 143  1.2230572e+01 6.03e-02 3.55e-01  -2.5 6.67e+00    -  1.00e+00 7.02e-01h  1
 144  1.2047940e+01 7.94e-03 8.08e-03  -2.5 1.38e+00    -  1.00e+00 1.00e+00h  1
 145  1.2001789e+01 2.43e-04 7.12e-04  -3.8 5.65e-01    -  1.00e+00 9.89e-01h  1
 146  1.2002556e+01 2.33e-07 7.77e-05  -3.8 1.38e-02    -  1.00e+00 1.00e+00h  1
 147  1.2000110e+01 5.17e-07 1.14e-03  -5.7 3.06e-02    -  1.00e+00 9.81e-01h  1
 148  1.2000106e+01 4.86e-10 3.52e-01  -5.7 1.18e-04    -  8.87e-01 1.00e+00f  1
 149  1.2000106e+01 2.14e-09 6.65e-01  -5.7 1.66e-02    -  1.00e+00 2.98e-02h  2
iter    objective    inf_pr   inf_du lg(mu)  ||d||  lg(rg) alpha_du alpha_pr  ls
 150  1.2000097e+01 2.59e-09 2.22e-06  -5.7 5.54e-04    -  1.00e+00 1.00e+00h  1
 151  1.2000079e+01 7.91e-10 2.71e-01  -8.6 2.77e-04    -  1.00e+00 7.01e-01h  1
 152  1.2000075e+01 9.35e-11 1.30e-01  -8.6 4.83e-05    -  1.00e+00 8.83e-01f  1
 153  1.2000075e+01 4.63e-12 2.31e-08  -8.6 2.59e-05    -  1.00e+00 1.00e+00f  1
 154  1.2000075e+01 6.93e-14 1.00e-10  -9.0 2.37e-06    -  1.00e+00 1.00e+00h  1

Number of Iterations....: 154

                                   (scaled)                 (unscaled)
Objective...............:   1.2000074880088441e+01    1.2000074880088441e+01
Dual infeasibility......:   1.0003299273989019e-10    1.0003299273989019e-10
Constraint violation....:   6.9277916736609768e-14    6.9277916736609768e-14
Complementarity.........:   9.4201797934449257e-10    9.4201797934449257e-10
Overall NLP error.......:   9.4201797934449257e-10    9.4201797934449257e-10


Number of objective function evaluations             = 180
Number of objective gradient evaluations             = 154
Number of equality constraint evaluations            = 180
Number of inequality constraint evaluations          = 180
Number of equality constraint Jacobian evaluations   = 157
Number of inequality constraint Jacobian evaluations = 157
Number of Lagrangian Hessian evaluations             = 154
Total CPU secs in IPOPT (w/o function evaluations)   =      0.070
Total CPU secs in NLP function evaluations           =      0.013

EXIT: Optimal Solution Found.

************************ CUTEst statistics ************************


 Package used            :  IPOPT
 Problem                 :  DISCS     
 # variables             =              36
 # constraints           =              66
 # objective functions   =        0.3350000E+03
 # objective gradients   =        0.1550000E+03
 # objective Hessians    =        0.1530000E+03
 # Hessian-vector prdct  =        0.0000000E+00
 # constraints functions =        0.3390000E+03
 # constraints gradients =        0.1590000E+03
 # constraints Hessians  =        0.1530000E+03
 Exit code               =               0
 Final f                 =   0.1200007E+02
 Set up time             =            0.00 seconds
 Solve time              =            0.33 seconds


******************************************************************

System Time =       0.0829999968 s.
